hyperperiod_length = 55;
num_links = 16;
num_packets = 5;

occupancy = 
[|    15,      27,      -1,      -1,      -1,   %0-1
 |    -1,      -1,      -1,      -1,      -1,   %0-2
 |    -1,      27,      -1,      -1,      -1,   %1-3
 |    -1,      -1,      -1,      -1,      -1,   %1-0
 |    -1,      -1,      16,      22,      -1,   %2-3
 |    -1,      -1,      -1,      -1,      18,   %2-0
 |    -1,      -1,      -1,      22,      -1,   %3-1
 |    -1,      -1,      -1,      -1,      18,   %3-2
 |    -1,      -1,      -1,      -1,      18,   %0-L
 |    15,      27,      -1,      -1,      -1,   %L-0
 |    15,      -1,      -1,      22,      -1,   %1-L
 |    -1,      -1,      -1,      -1,      -1,   %L-1
 |    -1,      -1,      -1,      -1,      -1,   %2-L
 |    -1,      -1,      16,      22,      -1,   %L-2
 |    -1,      27,      16,      -1,      -1,   %3-L
 |    -1,      -1,      -1,      -1,      18,   %L-3
|];

deadline = 
[|    55,      55,      -1,      -1,      -1,   %0-1
 |    -1,      -1,      -1,      -1,      -1,   %0-2
 |    -1,      55,      -1,      -1,      -1,   %1-3
 |    -1,      -1,      -1,      -1,      -1,   %1-0
 |    -1,      -1,      55,      55,      -1,   %2-3
 |    -1,      -1,      -1,      -1,      55,   %2-0
 |    -1,      -1,      -1,      55,      -1,   %3-1
 |    -1,      -1,      -1,      -1,      55,   %3-2
 |    -1,      -1,      -1,      -1,      55,   %0-L
 |    55,      55,      -1,      -1,      -1,   %L-0
 |    55,      -1,      -1,      55,      -1,   %1-L
 |    -1,      -1,      -1,      -1,      -1,   %L-1
 |    -1,      -1,      -1,      -1,      -1,   %2-L
 |    -1,      -1,      55,      55,      -1,   %L-2
 |    -1,      55,      55,      -1,      -1,   %3-L
 |    -1,      -1,      -1,      -1,      55,   %L-3
|];

min_start = 
[|     0,       0,      -1,      -1,      -1,   %0-1
 |    -1,      -1,      -1,      -1,      -1,   %0-2
 |    -1,       0,      -1,      -1,      -1,   %1-3
 |    -1,      -1,      -1,      -1,      -1,   %1-0
 |    -1,      -1,       0,       0,      -1,   %2-3
 |    -1,      -1,      -1,      -1,       0,   %2-0
 |    -1,      -1,      -1,       0,      -1,   %3-1
 |    -1,      -1,      -1,      -1,       0,   %3-2
 |    -1,      -1,      -1,      -1,       0,   %0-L
 |     0,       0,      -1,      -1,      -1,   %L-0
 |     0,      -1,      -1,       0,      -1,   %1-L
 |    -1,      -1,      -1,      -1,      -1,   %L-1
 |    -1,      -1,      -1,      -1,      -1,   %2-L
 |    -1,      -1,       0,       0,      -1,   %L-2
 |    -1,       0,       0,      -1,      -1,   %3-L
 |    -1,      -1,      -1,      -1,       0,   %L-3
|];
